decision_x1=[0,2];
decision_x2=[0,2];
decision_x3=[0,2];
decision_x4=[0,2];
decision_x5=[0,2];
decision_x6=[0,2];
decision_x7=[0,2];
decision_x8=[0,2];
decision_x9=[0,2];
decision_x10=[0,2];
decision_x11=[0,2];
decision_x12=[0,2];
decision_x13=[0,2];
decision_x14=[0,2];
decision_x15=[0,2];
random_y1=[0,2];
random_y2=[0,2];
random_y3=[0,2];
constraint_x4_x1=[
0,1,0.58|
0,2,1.4|
1,0,6.4|
1,2,7.5|
2,0,8.3|
2,1,3.3|
];
constraint_x4_x2=[
0,1,4.4|
0,2,4.1|
1,0,3.1|
1,2,5.2|
2,0,9.4|
2,1,6.1|
];
constraint_x4_x3=[
0,1,6.2|
0,2,3.7|
1,0,9.7|
1,2,6.8|
2,0,7.6|
2,1,5.7|
];
constraint_x5_x3=[
0,1,6.6|
0,2,8.2|
1,0,8.8|
1,2,8.1|
2,0,8.4|
2,1,6|
];
constraint_x6_x1=[
0,1,3|
0,2,3|
1,0,6.5|
1,2,2.9|
2,0,7.3|
2,1,2.8|
];
constraint_x6_x2=[
0,1,8.7|
0,2,4|
1,0,7.8|
1,2,3|
2,0,7.4|
2,1,9.2|
];
constraint_x6_x3=[
0,1,5.6|
0,2,2.6|
1,0,7.8|
1,2,5.9|
2,0,7.8|
2,1,3.6|
];
constraint_x6_x4=[
0,1,8.5|
0,2,8.9|
1,0,9.1|
1,2,4.4|
2,0,9|
2,1,9.6|
];
constraint_x6_x5=[
0,1,3.4|
0,2,2.8|
1,0,1.5|
1,2,6.2|
2,0,6.1|
2,1,7.5|
];
constraint_x7_x1=[
0,1,8.8|
0,2,8.3|
1,0,0.61|
1,2,7.4|
2,0,3.6|
2,1,6.6|
];
constraint_x7_x3=[
0,1,9.7|
0,2,9.1|
1,0,2.7|
1,2,6.5|
2,0,8.4|
2,1,6.8|
];
constraint_x7_x5=[
0,1,0.29|
0,2,8.1|
1,0,8.9|
1,2,8.7|
2,0,5.7|
2,1,8.8|
];
constraint_x7_x6=[
0,1,5.7|
0,2,7.1|
1,0,7.3|
1,2,7.1|
2,0,2.7|
2,1,0.93|
];
constraint_x8_x1=[
0,1,8.2|
0,2,1.2|
1,0,2.6|
1,2,3|
2,0,2.2|
2,1,6.9|
];
constraint_x8_x2=[
0,1,8.5|
0,2,4.7|
1,0,2.5|
1,2,3.1|
2,0,9|
2,1,8|
];
constraint_x8_x3=[
0,1,6.3|
0,2,3.8|
1,0,2.6|
1,2,0.57|
2,0,8.8|
2,1,8.4|
];
constraint_x8_x5=[
0,1,0.56|
0,2,0.95|
1,0,9.5|
1,2,3.5|
2,0,6.1|
2,1,1|
];
constraint_x8_x7=[
0,1,9.8|
0,2,9.7|
1,0,3.4|
1,2,4.3|
2,0,0.16|
2,1,0.25|
];
constraint_x9_x2=[
0,1,7.1|
0,2,6.1|
1,0,7.8|
1,2,6|
2,0,9|
2,1,8.3|
];
constraint_x9_x5=[
0,1,7.3|
0,2,2|
1,0,2.8|
1,2,2.1|
2,0,6.2|
2,1,5.2|
];
constraint_x9_x6=[
0,1,8.3|
0,2,4.7|
1,0,8.7|
1,2,9|
2,0,3.1|
2,1,2.9|
];
constraint_x9_x7=[
0,1,8.5|
0,2,2.6|
1,0,3.5|
1,2,1.3|
2,0,0.75|
2,1,6.5|
];
constraint_x10_x4=[
0,1,2.2|
0,2,1.9|
1,0,7.7|
1,2,7.9|
2,0,3.5|
2,1,7.1|
];
constraint_x10_x9=[
0,1,4.7|
0,2,9.2|
1,0,4.4|
1,2,3.6|
2,0,2.7|
2,1,2.3|
];
constraint_x11_x1=[
0,1,1.5|
0,2,3.7|
1,0,2|
1,2,8.7|
2,0,3.9|
2,1,4|
];
constraint_x11_x5=[
0,1,5.5|
0,2,4.2|
1,0,4.1|
1,2,9.7|
2,0,3.5|
2,1,1.6|
];
constraint_x11_x6=[
0,1,0.51|
0,2,4.6|
1,0,5.1|
1,2,7.7|
2,0,1.4|
2,1,8.8|
];
constraint_x11_x7=[
0,1,8.8|
0,2,6.5|
1,0,3.3|
1,2,2.7|
2,0,2.5|
2,1,2.2|
];
constraint_x11_x8=[
0,1,9.1|
0,2,1.4|
1,0,0.67|
1,2,8.8|
2,0,9.5|
2,1,8.5|
];
constraint_x11_x10=[
0,1,3.5|
0,2,4.5|
1,0,7.2|
1,2,9.7|
2,0,6.6|
2,1,0.55|
];
constraint_x12_x2=[
0,1,1|
0,2,7.9|
1,0,6.9|
1,2,1|
2,0,8.9|
2,1,5.2|
];
constraint_x12_x3=[
0,1,9.8|
0,2,6.3|
1,0,9.2|
1,2,7.2|
2,0,0.2|
2,1,3.2|
];
constraint_x12_x4=[
0,1,3.4|
0,2,1.8|
1,0,8.1|
1,2,1|
2,0,1.1|
2,1,4.8|
];
constraint_x12_x6=[
0,1,1.4|
0,2,6.9|
1,0,4|
1,2,8.2|
2,0,3.5|
2,1,1.4|
];
constraint_x12_x9=[
0,1,3.7|
0,2,0.16|
1,0,8.6|
1,2,3.4|
2,0,1.3|
2,1,3.5|
];
constraint_x12_x11=[
0,1,3.9|
0,2,4.5|
1,0,6.9|
1,2,4.4|
2,0,1.2|
2,1,0.88|
];
constraint_x13_x1=[
0,1,6.4|
0,2,2.8|
1,0,8.7|
1,2,10|
2,0,8.3|
2,1,2.7|
];
constraint_x13_x3=[
0,1,2|
0,2,9.6|
1,0,7.8|
1,2,4.3|
2,0,6.4|
2,1,2.2|
];
constraint_x13_x5=[
0,1,5.4|
0,2,7.7|
1,0,2.1|
1,2,9.1|
2,0,4.6|
2,1,6.9|
];
constraint_x13_x11=[
0,1,0.32|
0,2,4.1|
1,0,2.6|
1,2,9.9|
2,0,2.5|
2,1,3.5|
];
constraint_x14_x1=[
0,1,5.7|
0,2,3.6|
1,0,5.4|
1,2,4.6|
2,0,1.2|
2,1,9.7|
];
constraint_x14_x3=[
0,1,6.6|
0,2,6.8|
1,0,7.3|
1,2,4.8|
2,0,7.9|
2,1,4.6|
];
constraint_x14_x4=[
0,1,7.4|
0,2,0.26|
1,0,3.6|
1,2,9.1|
2,0,0.7|
2,1,7|
];
constraint_x14_x6=[
0,1,4.3|
0,2,1.2|
1,0,8.7|
1,2,3.8|
2,0,4.9|
2,1,3.4|
];
constraint_x14_x7=[
0,1,2|
0,2,0.4|
1,0,6.5|
1,2,4.4|
2,0,0.56|
2,1,7|
];
constraint_x14_x10=[
0,1,1.5|
0,2,4.5|
1,0,9.8|
1,2,6.3|
2,0,9.6|
2,1,0.92|
];
constraint_x14_x12=[
0,1,5.7|
0,2,4.1|
1,0,4.9|
1,2,0.27|
2,0,3.7|
2,1,7.5|
];
constraint_x15_x1=[
0,1,5.9|
0,2,8.7|
1,0,2.7|
1,2,7.8|
2,0,4.5|
2,1,3.8|
];
constraint_x15_x4=[
0,1,8.5|
0,2,4|
1,0,2|
1,2,4.5|
2,0,3.2|
2,1,5.5|
];
constraint_x15_x5=[
0,1,0.54|
0,2,2.6|
1,0,4.5|
1,2,3.5|
2,0,7.4|
2,1,4.7|
];
constraint_x15_x10=[
0,1,0.19|
0,2,9.4|
1,0,5.4|
1,2,2.4|
2,0,2.9|
2,1,7|
];
constraint_x15_x11=[
0,1,6.1|
0,2,7.9|
1,0,6.7|
1,2,4.5|
2,0,4|
2,1,8.3|
];
constraint_x15_x13=[
0,1,0.22|
0,2,9.7|
1,0,5.3|
1,2,5.5|
2,0,4.4|
2,1,8.5|
];
constraint_x1_y1=[
0,0,9.4|
0,1,2.9|
0,2,9.3|
1,0,4.3|
1,1,6|
1,2,9.4|
2,0,5.7|
2,1,8.1|
2,2,5.4|
];
constraint_x2_y2=[
0,0,5.3|
0,1,1.6|
0,2,6.6|
1,0,2.5|
1,1,8.4|
1,2,9.8|
2,0,3|
2,1,9.1|
2,2,4.6|
];
constraint_x3_y3=[
0,0,9.4|
0,1,1.3|
0,2,9.7|
1,0,4.9|
1,1,7.3|
1,2,5.2|
2,0,9.6|
2,1,6.9|
2,2,4.8|
];
initial_distribution_y1=[0.25,0.44,0.31];
initial_distribution_y2=[0.072,0.48,0.45];
initial_distribution_y3=[0.38,0.47,0.15];
transition_y1=[
0.46,0.29,0.25|
0.15,0.53,0.33|
0.27,0.37,0.37|
];
transition_y2=[
0.47,0.17,0.35|
0.5,0.28,0.23|
0.025,0.49,0.49|
];
transition_y3=[
0.37,0.25,0.38|
0.059,0.38,0.57|
0.19,0.6,0.21|
];
